input_door = [| 6 , 5 |];
output_door = [| 10 , 2 |];
n = 10;
edificio = 
[| 1, 0, 1, 0, 0, 0, 1, 1, 0, 0, 
| 0, 0, 0, 0, 1, 1, 1, 0, 0, 1, 
| 0, 1, 0, 0, 0, 1, 1, 0, 1, 0, 
| 0, 0, 0, 0, 0, 0, 0, 1, 0, 0, 
| 0, 0, 0, 1, 1, 1, 0, 1, 0, 0, 
| 0, 0, 0, 0, 2, 1, 0, 0, 1, 1, 
| 0, 1, 1, 0, 0, 0, 0, 0, 0, 0, 
| 0, 1, 0, 0, 0, 0, 0, 0, 0, 0, 
| 0, 0, 0, 0, 1, 0, 0, 0, 0, 0, 
| 0, 3, 0, 1, 0, 0, 0, 0, 0, 1 |];
